nP = 2;
nT = 8;
nC1 = 6;
nC2 = 8;
nA = 40;
nD = 3;

arc_from = [2, 1, 2, 1, 1, 2, 1, 2, 1, 2, 1, 1, 3, 4, 5, 5, 6, 6, 7, 7, 8, 8, 9, 9, 10, 10, 15, 14, 13, 16, 13, 14, 15, 15, 11, 12, 13, 14, 16, 16];
arc_to = [3, 4, 5, 5, 6, 6, 7, 7, 8, 9, 9, 10, 16, 14, 13, 11, 13, 15, 16, 15, 11, 16, 12, 15, 11, 16, 17, 18, 19, 20, 21, 22, 23, 24, 23, 21, 23, 20, 22, 24];

supply = [232.44, 232.44, 0.00, 0.00, 0.00, 0.00, 0.00, 0.00, 0.00, 0.00, 0.00, 0.00, 0.00, 0.00, 0.00, 0.00, 0.00, 0.00, 0.00, 0.00, 0.00, 0.00, 0.00, 0.00];
demand = [0.00, 0.00, 0.00, 0.00, 0.00, 0.00, 0.00, 0.00, 0.00, 0.00, 31.60, 30.48, 31.18, 31.60, 24.09, 24.52, 23.45, 24.32, 20.29, 22.10, 20.00, 24.71, 24.16, 25.10];

max_capacity = [795, 1414, 3181];

install_cost = array2d(1..nA, 1..nD, [
  20, 24, 32,
  50, 62, 78,
  20, 24, 32,
  50, 62, 78,
  20, 24, 32,
  50, 62, 78,
  20, 24, 32,
  50, 62, 78,
  20, 24, 32,
  50, 62, 78,
  20, 24, 32,
  50, 62, 78,
  20, 24, 32,
  50, 62, 78,
  20, 24, 32,
  50, 62, 78,
  20, 24, 32,
  50, 62, 78,
  20, 24, 32,
  50, 62, 78,
  20, 24, 32,
  50, 62, 78,
  20, 24, 32,
  50, 62, 78,
  20, 24, 32,
  50, 62, 78,
  20, 24, 32,
  50, 62, 78,
  20, 24, 32,
  50, 62, 78,
  20, 24, 32,
  50, 62, 78,
  20, 24, 32,
  50, 62, 78,
  20, 24, 32,
  50, 62, 78,
  20, 24, 32,
  50, 62, 78,
  20, 24, 32,
  50, 62, 78
]);

trans_cost = [6.42, 7.24, 6.02, 8.18, 5.60, 10.08, 6.94, 4.71, 4.39, 6.72, 5.66, 7.07, 6.71, 5.89, 4.73, 3.73, 5.33, 7.28, 6.32, 4.13, 6.26, 6.58, 4.67, 6.23, 6.09, 4.29, 6.54, 6.84, 7.62, 7.58, 3.93, 4.59, 6.77, 6.77, 6.77, 11.78, 6.86, 7.70, 7.43, 6.98];

% Metadata: {'tamaño': 'pequeñas', 'numero': 5, 'grupo': 5, 'demanda_total': 357.6, 'suministro_total': 464.88, 'factor_holgura': 1.3, 'num_arcos': 40, 'conectividad': {'plantas_tanques': 12, 'tanques_transbordo': 14, 'transbordo_finales': 14}}
% Total supply: 464.88
% Total demand: 357.60
% Balance factor: 1.30
